data/instances/vrp_files/train_55.vrp
NAME : 55
COMMENT : Generated instance No. 55
TYPE : CVRP
DIMENSION : 21
EDGE_WEIGHT_TYPE : EUC_2D
CAPACITY : 30
NODE_COORD_SECTION
 1 718 732
 2 814 685
 3 110 289
 4 309 249
 5 515 535
 6 356 353
 7 828 789
 8 307 913
 9 952 326
 10 354 505
 11 941 876
 12 102 392
 13 553 503
 14 193 858
 15 676 837
 16 858 748
 17 439 610
 18 160 673
 19 179 693
 20 229 117
 21 165 1
DEMAND_SECTION
1 0
2 2
3 6
4 6
5 1
6 1
7 10
8 3
9 10
10 10
11 3
12 4
13 2
14 9
15 10
16 7
17 7
18 6
19 3
20 6
21 8
DEPOT_SECTION
 1
 -1
EOF